(set-logic ALL)
(declare-fun var0 () String)
(assert (str.in_re var0 (re.++ (re.+ (re.union (str.to_re "0") (str.to_re "1"))) (re.++ (re.union (re.* (str.to_re "222")) (re.* (str.to_re "3"))) (re.++ (re.+ (re.+ (str.to_re "444"))) (re.++ (re.+ (re.* (str.to_re "55"))) (re.++ (re.+ (re.union (str.to_re "666") (str.to_re "77"))) (re.++ (re.* (re.+ (str.to_re "888"))) (re.++ (re.union (re.* (str.to_re "999")) (re.* (str.to_re "a"))) (re.++ (re.+ (re.union (str.to_re "bb") (str.to_re "ccc"))) (re.++ (re.+ (re.* (str.to_re "ddd"))) (re.++ (re.union (re.+ (str.to_re "ee")) (re.+ (str.to_re "f"))) (re.++ (re.* (re.* (str.to_re "g"))) (re.++ (re.+ (re.* (str.to_re "hhh"))) (re.++ (re.+ (re.union (str.to_re "i") (str.to_re "j"))) (re.++ (re.+ (re.union (str.to_re "k") (str.to_re "lll"))) (re.++ (re.+ (re.+ (str.to_re "mmm"))) (re.++ (re.* (re.union (str.to_re "nnn") (str.to_re "ooo"))) (re.++ (re.* (re.union (str.to_re "p") (str.to_re "qq"))) (re.++ (re.union (re.union (str.to_re "rrr") (str.to_re "s")) (re.union (str.to_re "tt") (str.to_re "uu"))) (re.++ (re.* (re.* (str.to_re "v"))) (re.++ (re.+ (re.union (str.to_re "w") (str.to_re "xxx"))) (re.++ (re.union (re.* (str.to_re "y")) (re.* (str.to_re "zz"))) (re.++ (re.union (re.+ (str.to_re "A")) (re.+ (str.to_re "BB"))) (re.++ (re.union (re.* (str.to_re "C")) (re.* (str.to_re "DDD"))) (re.++ (re.* (re.* (str.to_re "EE"))) (re.++ (re.union (re.union (str.to_re "F") (str.to_re "GG")) (re.union (str.to_re "H") (str.to_re "III"))) (re.++ (re.+ (re.* (str.to_re "J"))) (re.++ (re.+ (re.+ (str.to_re "KKK"))) (re.++ (re.union (re.union (str.to_re "L") (str.to_re "M")) (re.union (str.to_re "NN") (str.to_re "O"))) (re.++ (re.union (re.+ (str.to_re "PPP")) (re.+ (str.to_re "Q"))) (re.++ (re.union (re.union (str.to_re "RR") (str.to_re "SSS")) (re.union (str.to_re "T") (str.to_re "UU"))) (re.++ (re.union (re.union (str.to_re "V") (str.to_re "WW")) (re.union (str.to_re "XXX") (str.to_re "Y"))) (re.++ (re.* (re.union (str.to_re "Z") (str.to_re "!!"))) (re.++ (re.+ (re.union (str.to_re """""") (str.to_re "##"))) (re.++ (re.* (re.+ (str.to_re "$$"))) (re.++ (re.union (re.* (str.to_re "%")) (re.* (str.to_re "&&"))) (re.++ (re.+ (re.+ (str.to_re "'"))) (re.++ (re.+ (re.* (str.to_re "((("))) (re.++ (re.* (re.* (str.to_re "))"))) (re.++ (re.+ (re.union (str.to_re "*") (str.to_re "++"))) (re.++ (re.+ (re.+ (str.to_re ",,,"))) (re.++ (re.* (re.* (str.to_re "-"))) (re.++ (re.+ (re.union (str.to_re "..") (str.to_re "//"))) (re.++ (re.* (re.+ (str.to_re ":::"))) (re.++ (re.+ (re.* (str.to_re ";"))) (re.++ (re.* (re.+ (str.to_re "<"))) (re.++ (re.+ (re.* (str.to_re "="))) (re.++ (re.+ (re.union (str.to_re ">") (str.to_re "??"))) (re.++ (re.union (re.* (str.to_re "@@@")) (re.* (str.to_re "["))) (re.++ (re.* (re.+ (str.to_re "\\"))) (re.++ (re.* (re.union (str.to_re "]]]") (str.to_re "^^"))) (re.++ (re.+ (re.+ (str.to_re "_"))) (re.++ (re.* (re.+ (str.to_re "`"))) (re.++ (re.* (re.* (str.to_re "{{"))) (re.++ (re.union (re.union (str.to_re "|||") (str.to_re "}")) (re.union (str.to_re "~~~") (str.to_re "0"))) (re.++ (re.* (re.* (str.to_re "1"))) (re.++ (re.+ (re.+ (str.to_re "2"))) (re.++ (re.* (re.+ (str.to_re "3"))) (re.++ (re.+ (re.* (str.to_re "4"))) (re.++ (re.* (re.+ (str.to_re "5"))) (re.++ (re.* (re.+ (str.to_re "6"))) (re.++ (re.union (re.union (str.to_re "7") (str.to_re "88")) (re.union (str.to_re "99") (str.to_re "a"))) (re.++ (re.union (re.union (str.to_re "bb") (str.to_re "ccc")) (re.union (str.to_re "dd") (str.to_re "ee"))) (re.++ (re.* (re.union (str.to_re "fff") (str.to_re "g"))) (re.++ (re.* (re.* (str.to_re "h"))) (re.++ (re.* (re.* (str.to_re "i"))) (re.++ (re.union (re.union (str.to_re "j") (str.to_re "k")) (re.union (str.to_re "l") (str.to_re "m"))) (re.++ (re.* (re.+ (str.to_re "nn"))) (re.++ (re.+ (re.+ (str.to_re "oo"))) (re.++ (re.+ (re.* (str.to_re "pp"))) (re.++ (re.* (re.+ (str.to_re "qq"))) (re.++ (re.* (re.+ (str.to_re "r"))) (re.++ (re.* (re.* (str.to_re "sss"))) (re.++ (re.union (re.+ (str.to_re "ttt")) (re.+ (str.to_re "uuu"))) (re.++ (re.* (re.union (str.to_re "vv") (str.to_re "www"))) (re.++ (re.union (re.union (str.to_re "xxx") (str.to_re "yyy")) (re.union (str.to_re "zz") (str.to_re "AA"))) (re.++ (re.union (re.union (str.to_re "B") (str.to_re "CC")) (re.union (str.to_re "DD") (str.to_re "EE"))) (re.++ (re.+ (re.union (str.to_re "FFF") (str.to_re "GG"))) (re.++ (re.union (re.* (str.to_re "HH")) (re.* (str.to_re "II"))) (re.++ (re.+ (re.+ (str.to_re "JJ"))) (re.++ (re.* (re.* (str.to_re "KK"))) (re.++ (re.* (re.* (str.to_re "L"))) (re.++ (re.+ (re.* (str.to_re "MMM"))) (re.++ (re.+ (re.+ (str.to_re "NNN"))) (re.++ (re.* (re.* (str.to_re "O"))) (re.++ (re.* (re.union (str.to_re "PPP") (str.to_re "Q"))) (re.++ (re.* (re.union (str.to_re "RRR") (str.to_re "S"))) (re.++ (re.* (re.+ (str.to_re "TT"))) (re.++ (re.+ (re.+ (str.to_re "U"))) (re.++ (re.* (re.* (str.to_re "V"))) (re.++ (re.+ (re.* (str.to_re "W"))) (re.++ (re.* (re.* (str.to_re "XX"))) (re.++ (re.union (re.+ (str.to_re "YYY")) (re.+ (str.to_re "ZZ"))) (re.++ (re.union (re.+ (str.to_re "!!")) (re.+ (str.to_re """"""""))) (re.++ (re.union (re.union (str.to_re "###") (str.to_re "$$$")) (re.union (str.to_re "%%") (str.to_re "&&&"))) (re.++ (re.+ (re.* (str.to_re "'"))) (re.++ (re.+ (re.* (str.to_re "((("))) (re.++ (re.union (re.union (str.to_re "))") (str.to_re "***")) (re.union (str.to_re "+++") (str.to_re ",,,"))) (re.++ (re.* (re.union (str.to_re "--") (str.to_re "."))) (re.++ (re.* (re.* (str.to_re "//"))) (re.++ (re.+ (re.* (str.to_re "::"))) (re.++ (re.+ (re.* (str.to_re ";;;"))) (re.++ (re.union (re.+ (str.to_re "<<<")) (re.+ (str.to_re "==="))) (re.++ (re.union (re.* (str.to_re ">")) (re.* (str.to_re "???"))) (re.++ (re.+ (re.union (str.to_re "@@@") (str.to_re "["))) (re.++ (re.* (re.* (str.to_re "\\\\\\"))) (re.++ (re.+ (re.union (str.to_re "]]") (str.to_re "^"))) (re.++ (re.union (re.* (str.to_re "_")) (re.* (str.to_re "`"))) (re.++ (re.* (re.union (str.to_re "{") (str.to_re "|"))) (re.++ (re.* (re.+ (str.to_re "}"))) (re.++ (re.* (re.union (str.to_re "~~") (str.to_re "00"))) (re.++ (re.union (re.+ (str.to_re "11")) (re.+ (str.to_re "2"))) (re.++ (re.+ (re.+ (str.to_re "333"))) (re.++ (re.+ (re.+ (str.to_re "44"))) (re.++ (re.+ (re.union (str.to_re "5") (str.to_re "666"))) (re.++ (re.union (re.* (str.to_re "77")) (re.* (str.to_re "888"))) (re.++ (re.union (re.* (str.to_re "99")) (re.* (str.to_re "aaa"))) (re.++ (re.union (re.* (str.to_re "b")) (re.* (str.to_re "cc"))) (re.++ (re.* (re.union (str.to_re "d") (str.to_re "ee"))) (re.++ (re.* (re.* (str.to_re "ff"))) (re.++ (re.+ (re.+ (str.to_re "ggg"))) (re.++ (re.union (re.* (str.to_re "h")) (re.* (str.to_re "ii"))) (re.++ (re.+ (re.+ (str.to_re "jj"))) (re.++ (re.union (re.+ (str.to_re "kk")) (re.+ (str.to_re "ll"))) (re.++ (re.union (re.* (str.to_re "m")) (re.* (str.to_re "nn"))) (re.++ (re.+ (re.* (str.to_re "o"))) (re.++ (re.* (re.* (str.to_re "ppp"))) (re.++ (re.+ (re.union (str.to_re "qqq") (str.to_re "rrr"))) (re.++ (re.* (re.union (str.to_re "ss") (str.to_re "ttt"))) (re.++ (re.+ (re.+ (str.to_re "uuu"))) (re.++ (re.* (re.union (str.to_re "vv") (str.to_re "www"))) (re.++ (re.+ (re.union (str.to_re "x") (str.to_re "yy"))) (re.++ (re.* (re.union (str.to_re "z") (str.to_re "AA"))) (re.++ (re.union (re.+ (str.to_re "B")) (re.+ (str.to_re "CC"))) (re.++ (re.+ (re.* (str.to_re "D"))) (re.++ (re.union (re.+ (str.to_re "EE")) (re.+ (str.to_re "FFF"))) (re.++ (re.+ (re.* (str.to_re "G"))) (re.++ (re.+ (re.+ (str.to_re "HHH"))) (re.++ (re.+ (re.union (str.to_re "I") (str.to_re "JJ"))) (re.++ (re.+ (re.union (str.to_re "KKK") (str.to_re "LL"))) (re.++ (re.union (re.* (str.to_re "MM")) (re.* (str.to_re "N"))) (re.++ (re.union (re.* (str.to_re "OO")) (re.* (str.to_re "PP"))) (re.++ (re.union (re.+ (str.to_re "QQ")) (re.+ (str.to_re "RRR"))) (re.++ (re.* (re.+ (str.to_re "SSS"))) (re.++ (re.union (re.union (str.to_re "TT") (str.to_re "UUU")) (re.union (str.to_re "VVV") (str.to_re "W"))) (re.++ (re.union (re.union (str.to_re "XXX") (str.to_re "YYY")) (re.union (str.to_re "ZZ") (str.to_re "!!!"))) (re.++ (re.* (re.+ (str.to_re """"))) (re.++ (re.+ (re.union (str.to_re "#") (str.to_re "$$$"))) (re.++ (re.+ (re.* (str.to_re "%"))) (re.++ (re.* (re.* (str.to_re "&&"))) (re.++ (re.+ (re.+ (str.to_re "''"))) (re.++ (re.* (re.union (str.to_re "(") (str.to_re "))"))) (re.++ (re.* (re.* (str.to_re "*"))) (re.++ (re.* (re.union (str.to_re "+++") (str.to_re ","))) (re.++ (re.+ (re.union (str.to_re "---") (str.to_re ".."))) (re.* (re.+ (str.to_re "//")))))))))))))))))))))))))))))))))))))))))))))))))))))))))))))))))))))))))))))))))))))))))))))))))))))))))))))))))))))))))))))))))))))))))))))))))))))))))))))))
(check-sat)